p cnf 445 1533
1 2 3 4 5 6 7 8 9 10 11 19 21 28 31 37 41 46 51 55 61 64 71 73 81 0
1 2 3 4 5 6 7 8 9 10 11 12 20 22 29 32 38 42 47 52 56 62 65 72 74 0
1 2 3 4 5 6 7 8 9 11 12 13 19 21 23 30 33 39 43 48 53 57 63 66 75 0
1 2 3 4 5 6 7 8 9 12 13 14 20 22 24 28 31 34 40 44 49 54 58 67 76 0
1 2 3 4 5 6 7 8 9 13 14 15 21 23 25 29 32 35 37 41 45 50 59 68 77 0
1 2 3 4 5 6 7 8 9 14 15 16 22 24 26 30 33 36 38 42 46 51 60 69 78 0
1 2 3 4 5 6 7 8 9 15 16 17 23 25 27 31 34 39 43 47 52 55 61 70 79 0
1 2 3 4 5 6 7 8 9 16 17 18 24 26 32 35 40 44 48 53 56 62 64 71 80 0
1 2 3 4 5 6 7 8 9 17 18 25 27 33 36 41 45 49 54 57 63 65 72 73 81 0
1 2 10 11 12 13 14 15 16 17 18 19 20 28 30 37 40 46 50 55 60 64 70 73 80 0
1 2 3 10 11 12 13 14 15 16 17 18 19 20 21 29 31 38 41 47 51 56 61 65 71 74 81 0
2 3 4 10 11 12 13 14 15 16 17 18 20 21 22 28 30 32 39 42 48 52 57 62 66 72 75 0
3 4 5 10 11 12 13 14 15 16 17 18 21 22 23 29 31 33 37 40 43 49 53 58 63 67 76 0
4 5 6 10 11 12 13 14 15 16 17 18 22 23 24 30 32 34 38 41 44 46 50 54 59 68 77 0
5 6 7 10 11 12 13 14 15 16 17 18 23 24 25 31 33 35 39 42 45 47 51 55 60 69 78 0
6 7 8 10 11 12 13 14 15 16 17 18 24 25 26 32 34 36 40 43 48 52 56 61 64 70 79 0
7 8 9 10 11 12 13 14 15 16 17 18 25 26 27 33 35 41 44 49 53 57 62 65 71 73 80 0
8 9 10 11 12 13 14 15 16 17 18 26 27 34 36 42 45 50 54 58 63 66 72 74 81 0
1 3 10 11 19 20 21 22 23 24 25 26 27 28 29 37 39 46 49 55 59 64 69 73 79 0
2 4 10 11 12 19 20 21 22 23 24 25 26 27 28 29 30 38 40 47 50 56 60 65 70 74 80 0
1 3 5 11 12 13 19 20 21 22 23 24 25 26 27 29 30 31 37 39 41 48 51 57 61 66 71 75 81 0
2 4 6 12 13 14 19 20 21 22 23 24 25 26 27 30 31 32 38 40 42 46 49 52 58 62 67 72 76 0
3 5 7 13 14 15 19 20 21 22 23 24 25 26 27 31 32 33 39 41 43 47 50 53 55 59 63 68 77 0
4 6 8 14 15 16 19 20 21 22 23 24 25 26 27 32 33 34 40 42 44 48 51 54 56 60 64 69 78 0
5 7 9 15 16 17 19 20 21 22 23 24 25 26 27 33 34 35 41 43 45 49 52 57 61 65 70 73 79 0
6 8 16 17 18 19 20 21 22 23 24 25 26 27 34 35 36 42 44 50 53 58 62 66 71 74 80 0
7 9 17 18 19 20 21 22 23 24 25 26 27 35 36 43 45 51 54 59 63 67 72 75 81 0
1 4 10 12 19 20 28 29 30 31 32 33 34 35 36 37 38 46 48 55 58 64 68 73 78 0
2 5 11 13 19 20 21 28 29 30 31 32 33 34 35 36 37 38 39 47 49 56 59 65 69 74 79 0
3 6 10 12 14 20 21 22 28 29 30 31 32 33 34 35 36 38 39 40 46 48 50 57 60 66 70 75 80 0
1 4 7 11 13 15 21 22 23 28 29 30 31 32 33 34 35 36 39 40 41 47 49 51 55 58 61 67 71 76 81 0
2 5 8 12 14 16 22 23 24 28 29 30 31 32 33 34 35 36 40 41 42 48 50 52 56 59 62 64 68 72 77 0
3 6 9 13 15 17 23 24 25 28 29 30 31 32 33 34 35 36 41 42 43 49 51 53 57 60 63 65 69 73 78 0
4 7 14 16 18 24 25 26 28 29 30 31 32 33 34 35 36 42 43 44 50 52 54 58 61 66 70 74 79 0
5 8 15 17 25 26 27 28 29 30 31 32 33 34 35 36 43 44 45 51 53 59 62 67 71 75 80 0
6 9 16 18 26 27 28 29 30 31 32 33 34 35 36 44 45 52 54 60 63 68 72 76 81 0
1 5 10 13 19 21 28 29 37 38 39 40 41 42 43 44 45 46 47 55 57 64 67 73 77 0
2 6 11 14 20 22 28 29 30 37 38 39 40 41 42 43 44 45 46 47 48 56 58 65 68 74 78 0
3 7 12 15 19 21 23 29 30 31 37 38 39 40 41 42 43 44 45 47 48 49 55 57 59 66 69 75 79 0
4 8 10 13 16 20 22 24 30 31 32 37 38 39 40 41 42 43 44 45 48 49 50 56 58 60 64 67 70 76 80 0
1 5 9 11 14 17 21 23 25 31 32 33 37 38 39 40 41 42 43 44 45 49 50 51 57 59 61 65 68 71 73 77 81 0
2 6 12 15 18 22 24 26 32 33 34 37 38 39 40 41 42 43 44 45 50 51 52 58 60 62 66 69 72 74 78 0
3 7 13 16 23 25 27 33 34 35 37 38 39 40 41 42 43 44 45 51 52 53 59 61 63 67 70 75 79 0
4 8 14 17 24 26 34 35 36 37 38 39 40 41 42 43 44 45 52 53 54 60 62 68 71 76 80 0
5 9 15 18 25 27 35 36 37 38 39 40 41 42 43 44 45 53 54 61 63 69 72 77 81 0
1 6 10 14 19 22 28 30 37 38 46 47 48 49 50 51 52 53 54 55 56 64 66 73 76 0
2 7 11 15 20 23 29 31 37 38 39 46 47 48 49 50 51 52 53 54 55 56 57 65 67 74 77 0
3 8 12 16 21 24 28 30 32 38 39 40 46 47 48 49 50 51 52 53 54 56 57 58 64 66 68 75 78 0
4 9 13 17 19 22 25 29 31 33 39 40 41 46 47 48 49 50 51 52 53 54 57 58 59 65 67 69 73 76 79 0
5 10 14 18 20 23 26 30 32 34 40 41 42 46 47 48 49 50 51 52 53 54 58 59 60 66 68 70 74 77 80 0
1 6 11 15 21 24 27 31 33 35 41 42 43 46 47 48 49 50 51 52 53 54 59 60 61 67 69 71 75 78 81 0
2 7 12 16 22 25 32 34 36 42 43 44 46 47 48 49 50 51 52 53 54 60 61 62 68 70 72 76 79 0
3 8 13 17 23 26 33 35 43 44 45 46 47 48 49 50 51 52 53 54 61 62 63 69 71 77 80 0
4 9 14 18 24 27 34 36 44 45 46 47 48 49 50 51 52 53 54 62 63 70 72 78 81 0
1 7 10 15 19 23 28 31 37 39 46 47 55 56 57 58 59 60 61 62 63 64 65 73 75 0
2 8 11 16 20 24 29 32 38 40 46 47 48 55 56 57 58 59 60 61 62 63 64 65 66 74 76 0
3 9 12 17 21 25 30 33 37 39 41 47 48 49 55 56 57 58 59 60 61 62 63 65 66 67 73 75 77 0
4 13 18 22 26 28 31 34 38 40 42 48 49 50 55 56 57 58 59 60 61 62 63 66 67 68 74 76 78 0
5 14 19 23 27 29 32 35 39 41 43 49 50 51 55 56 57 58 59 60 61 62 63 67 68 69 75 77 79 0
6 10 15 20 24 30 33 36 40 42 44 50 51 52 55 56 57 58 59 60 61 62 63 68 69 70 76 78 80 0
1 7 11 16 21 25 31 34 41 43 45 51 52 53 55 56 57 58 59 60 61 62 63 69 70 71 77 79 81 0
2 8 12 17 22 26 32 35 42 44 52 53 54 55 56 57 58 59 60 61 62 63 70 71 72 78 80 0
3 9 13 18 23 27 33 36 43 45 53 54 55 56 57 58 59 60 61 62 63 71 72 79 81 0
1 8 10 16 19 24 28 32 37 40 46 48 55 56 64 65 66 67 68 69 70 71 72 73 74 0
2 9 11 17 20 25 29 33 38 41 47 49 55 56 57 64 65 66 67 68 69 70 71 72 73 74 75 0
3 12 18 21 26 30 34 39 42 46 48 50 56 57 58 64 65 66 67 68 69 70 71 72 74 75 76 0
4 13 22 27 31 35 37 40 43 47 49 51 57 58 59 64 65 66 67 68 69 70 71 72 75 76 77 0
5 14 23 28 32 36 38 41 44 48 50 52 58 59 60 64 65 66 67 68 69 70 71 72 76 77 78 0
6 15 19 24 29 33 39 42 45 49 51 53 59 60 61 64 65 66 67 68 69 70 71 72 77 78 79 0
7 10 16 20 25 30 34 40 43 50 52 54 60 61 62 64 65 66 67 68 69 70 71 72 78 79 80 0
1 8 11 17 21 26 31 35 41 44 51 53 61 62 63 64 65 66 67 68 69 70 71 72 79 80 81 0
2 9 12 18 22 27 32 36 42 45 52 54 62 63 64 65 66 67 68 69 70 71 72 80 81 0
1 9 10 17 19 25 28 33 37 41 46 49 55 57 64 65 73 74 75 76 77 78 79 80 81 0
2 11 18 20 26 29 34 38 42 47 50 56 58 64 65 66 73 74 75 76 77 78 79 80 81 0
3 12 21 27 30 35 39 43 48 51 55 57 59 65 66 67 73 74 75 76 77 78 79 80 81 0
4 13 22 31 36 40 44 46 49 52 56 58 60 66 67 68 73 74 75 76 77 78 79 80 81 0
5 14 23 32 37 41 45 47 50 53 57 59 61 67 68 69 73 74 75 76 77 78 79 80 81 0
6 15 24 28 33 38 42 48 51 54 58 60 62 68 69 70 73 74 75 76 77 78 79 80 81 0
7 16 19 25 29 34 39 43 49 52 59 61 63 69 70 71 73 74 75 76 77 78 79 80 81 0
8 10 17 20 26 30 35 40 44 50 53 60 62 70 71 72 73 74 75 76 77 78 79 80 81 0
1 9 11 18 21 27 31 36 41 45 51 54 61 63 71 72 73 74 75 76 77 78 79 80 81 0
-41 -12 -56 -26 -70 0
-41 -12 -55 -78 -35 0
-41 -20 -66 -62 -16 0
-41 -20 -67 -7 -54 0
-41 -22 -60 -34 -48 0
-41 -52 -58 -30 -24 0
-41 -56 -36 -13 -79 0
-41 -62 -28 -75 -15 0
-41 -2 -64 -18 -80 0
-41 -4 -70 -47 -27 0
-41 -4 -36 -78 -46 0
-41 -6 -66 -53 -19 0
-41 -6 -28 -54 -76 0
-41 -8 -72 -74 -10 0
-41 -3 -26 -69 -46 0
-41 -3 -55 -79 -27 0
-41 -7 -75 -19 -63 0
-41 -29 -16 -76 -63 0
-41 -29 -15 -53 -67 0
-41 -47 -13 -35 -69 0
-41 -11 -31 -71 -51 0
-41 -65 -17 -33 -49 0
-31 -65 -53 -15 -19 0
-31 -17 -3 -69 -47 0
-31 -46 -26 -69 -3 0
-31 -19 -66 -53 -6 0
-31 -55 -7 -50 -42 0
-51 -65 -79 -13 -35 0
-51 -17 -63 -29 -67 0
-51 -36 -13 -56 -79 0
-51 -63 -16 -76 -29 0
-51 -27 -32 -75 -40 0
-21 -52 -58 -69 -17 0
-21 -60 -53 -34 -65 0
-21 -58 -16 -53 -65 0
-21 -58 -16 -53 -9 0
-21 -78 -54 -70 -62 0
-21 -56 -34 -69 -73 0
-21 -56 -34 -69 -17 0
-21 -73 -59 -45 -7 0
-21 -77 -55 -9 -43 0
-61 -4 -28 -12 -20 0
-61 -13 -48 -26 -9 0
-61 -13 -48 -26 -65 0
-61 -13 -24 -30 -65 0
-61 -29 -24 -73 -66 0
-61 -29 -24 -17 -66 0
-61 -29 -22 -48 -17 0
-61 -23 -9 -75 -37 0
-61 -5 -27 -73 -39 0
-11 -35 -57 -52 -24 0
-11 -35 -57 -22 -70 0
-11 -35 -55 -69 -49 0
-11 -67 -25 -62 -30 0
-11 -67 -25 -48 -60 0
-11 -67 -7 -53 -33 0
-11 -3 -68 -19 -44 0
-71 -58 -25 -30 -47 0
-71 -47 -33 -27 -13 0
-71 -47 -12 -25 -60 0
-71 -15 -29 -75 -49 0
-71 -15 -57 -20 -52 0
-71 -15 -57 -22 -34 0
-71 -63 -79 -38 -14 0
-1 -48 -13 -26 -69 0
-1 -66 -23 -44 -79 0
-1 -66 -53 -24 -29 0
-1 -39 -26 -68 -63 0
-1 -39 -25 -63 -77 0
-1 -57 -52 -20 -15 0
-1 -57 -79 -23 -45 0
-1 -67 -15 -29 -53 0
-1 -67 -45 -32 -80 0
-1 -35 -47 -13 -69 0
-1 -35 -77 -40 -72 0
-1 -12 -47 -60 -25 0
-2 -81 -37 -15 -50 0
-3 -81 -38 -59 -16 0
-3 -81 -37 -25 -59 0
-3 -63 -50 -33 -40 0
-4 -47 -27 -70 -33 0
-5 -81 -10 -47 -42 0
-5 -81 -19 -57 -43 0
-5 -73 -18 -53 -40 0
-6 -16 -36 -57 -26 0
-7 -73 -12 -44 -59 0
-7 -27 -68 -38 -17 0
-7 -54 -67 -20 -33 0
-8 -13 -73 -50 -45 0
-9 -38 -70 -23 -75 0
-9 -20 -67 -52 -15 0
-9 -20 -68 -43 -55 0
-9 -29 -53 -15 -67 0
-9 -29 -64 -77 -42 0
-9 -47 -22 -70 -35 0
-9 -47 -13 -69 -35 0
-9 -74 -37 -32 -69 0
-19 -42 -79 -32 -49 0
-19 -56 -14 -43 -81 0
-28 -75 -15 -49 -62 0
-46 -25 -66 -56 -76 0
-55 -12 -35 -78 -49 0
-55 -75 -14 -65 -44 0
-73 -14 -39 -62 -27 0
-73 -15 -30 -62 -67 0
-73 -15 -53 -29 -67 0
-73 -13 -47 -69 -35 0
-73 -35 -12 -47 -60 0
-81 -22 -35 -70 -57 0
-81 -29 -58 -16 -53 0
-81 -29 -15 -67 -53 0
-81 -25 -67 -30 -62 0
-81 -69 -13 -47 -35 0
-81 -69 -13 -56 -34 0
-115 91 123 0
-116 92 123 0
-117 93 123 0
-118 94 123 0
-119 95 123 0
-120 96 123 0
-121 97 123 0
-122 98 123 0
-103 91 123 0
-104 92 123 0
-105 93 123 0
-106 94 123 0
-107 95 123 0
-108 96 123 0
-109 97 123 0
-110 98 123 0
-103 -115 92 123 0
-103 -116 93 123 0
-103 -117 94 123 0
-103 -118 95 123 0
-103 -119 96 123 0
-103 -120 97 123 0
-103 -121 98 123 0
-103 -122 123 0
-104 -115 93 123 0
-104 -116 94 123 0
-104 -117 95 123 0
-104 -118 96 123 0
-104 -119 97 123 0
-104 -120 98 123 0
-104 -121 123 0
-104 -122 91 0
-105 -115 94 123 0
-105 -116 95 123 0
-105 -117 96 123 0
-105 -118 97 123 0
-105 -119 98 123 0
-105 -120 123 0
-105 -121 91 0
-105 -122 92 0
-106 -115 95 123 0
-106 -116 96 123 0
-106 -117 97 123 0
-106 -118 98 123 0
-106 -119 123 0
-106 -120 91 0
-106 -121 92 0
-106 -122 93 0
-107 -115 96 123 0
-107 -116 97 123 0
-107 -117 98 123 0
-107 -118 123 0
-107 -119 91 0
-107 -120 92 0
-107 -121 93 0
-107 -122 94 0
-108 -115 97 123 0
-108 -116 98 123 0
-108 -117 123 0
-108 -118 91 0
-108 -119 92 0
-108 -120 93 0
-108 -121 94 0
-108 -122 95 0
-109 -115 98 123 0
-109 -116 123 0
-109 -117 91 0
-109 -118 92 0
-109 -119 93 0
-109 -120 94 0
-109 -121 95 0
-109 -122 96 0
-110 -115 123 0
-110 -116 91 0
-110 -117 92 0
-110 -118 93 0
-110 -119 94 0
-110 -120 95 0
-110 -121 96 0
-110 -122 97 0
-123 82 0
-111 82 0
-123 -111 83 0
-112 83 0
-123 -112 84 0
-113 84 0
-123 -113 85 0
-114 85 0
-123 -114 86 0
-99 82 0
-123 -99 83 0
-100 83 0
-123 -100 84 0
-101 84 0
-123 -101 85 0
-102 85 0
-123 -102 86 0
-99 -111 83 0
-123 -99 -111 84 0
-99 -112 84 0
-123 -99 -112 85 0
-99 -113 85 0
-123 -99 -113 86 0
-99 -114 86 0
-123 -99 -114 87 0
-100 -111 84 0
-123 -100 -111 85 0
-100 -112 85 0
-123 -100 -112 86 0
-100 -113 86 0
-123 -100 -113 87 0
-100 -114 87 0
-123 -100 -114 88 0
-101 -111 85 0
-123 -101 -111 86 0
-101 -112 86 0
-123 -101 -112 87 0
-101 -113 87 0
-123 -101 -113 88 0
-101 -114 88 0
-123 -101 -114 89 0
-102 -111 86 0
-123 -102 -111 87 0
-102 -112 87 0
-123 -102 -112 88 0
-102 -113 88 0
-123 -102 -113 89 0
-102 -114 89 0
-123 -102 -114 90 0
-136 115 144 0
-137 116 144 0
-138 117 144 0
-139 118 144 0
-140 119 144 0
-141 120 144 0
-142 121 144 0
-143 122 144 0
-126 115 144 0
-127 116 144 0
-128 117 144 0
-129 118 144 0
-130 119 144 0
-131 120 144 0
-132 121 144 0
-133 122 144 0
-126 -136 116 144 0
-126 -137 117 144 0
-126 -138 118 144 0
-126 -139 119 144 0
-126 -140 120 144 0
-126 -141 121 144 0
-126 -142 122 144 0
-126 -143 144 0
-127 -136 117 144 0
-127 -137 118 144 0
-127 -138 119 144 0
-127 -139 120 144 0
-127 -140 121 144 0
-127 -141 122 144 0
-127 -142 144 0
-127 -143 115 0
-128 -136 118 144 0
-128 -137 119 144 0
-128 -138 120 144 0
-128 -139 121 144 0
-128 -140 122 144 0
-128 -141 144 0
-128 -142 115 0
-128 -143 116 0
-129 -136 119 144 0
-129 -137 120 144 0
-129 -138 121 144 0
-129 -139 122 144 0
-129 -140 144 0
-129 -141 115 0
-129 -142 116 0
-129 -143 117 0
-130 -136 120 144 0
-130 -137 121 144 0
-130 -138 122 144 0
-130 -139 144 0
-130 -140 115 0
-130 -141 116 0
-130 -142 117 0
-130 -143 118 0
-131 -136 121 144 0
-131 -137 122 144 0
-131 -138 144 0
-131 -139 115 0
-131 -140 116 0
-131 -141 117 0
-131 -142 118 0
-131 -143 119 0
-132 -136 122 144 0
-132 -137 144 0
-132 -138 115 0
-132 -139 116 0
-132 -140 117 0
-132 -141 118 0
-132 -142 119 0
-132 -143 120 0
-133 -136 144 0
-133 -137 115 0
-133 -138 116 0
-133 -139 117 0
-133 -140 118 0
-133 -141 119 0
-133 -142 120 0
-133 -143 121 0
-144 111 0
-134 111 0
-144 -134 112 0
-135 112 0
-144 -135 113 0
-124 111 0
-144 -124 112 0
-125 112 0
-144 -125 113 0
-124 -134 112 0
-144 -124 -134 113 0
-124 -135 113 0
-144 -124 -135 114 0
-125 -134 113 0
-144 -125 -134 114 0
-125 -135 114 0
-144 -125 -135 0
-155 136 163 0
-156 137 163 0
-157 138 163 0
-158 139 163 0
-159 140 163 0
-160 141 163 0
-161 142 163 0
-162 143 163 0
-146 136 163 0
-147 137 163 0
-148 138 163 0
-149 139 163 0
-150 140 163 0
-151 141 163 0
-152 142 163 0
-153 143 163 0
-146 -155 137 163 0
-146 -156 138 163 0
-146 -157 139 163 0
-146 -158 140 163 0
-146 -159 141 163 0
-146 -160 142 163 0
-146 -161 143 163 0
-146 -162 163 0
-147 -155 138 163 0
-147 -156 139 163 0
-147 -157 140 163 0
-147 -158 141 163 0
-147 -159 142 163 0
-147 -160 143 163 0
-147 -161 163 0
-147 -162 136 0
-148 -155 139 163 0
-148 -156 140 163 0
-148 -157 141 163 0
-148 -158 142 163 0
-148 -159 143 163 0
-148 -160 163 0
-148 -161 136 0
-148 -162 137 0
-149 -155 140 163 0
-149 -156 141 163 0
-149 -157 142 163 0
-149 -158 143 163 0
-149 -159 163 0
-149 -160 136 0
-149 -161 137 0
-149 -162 138 0
-150 -155 141 163 0
-150 -156 142 163 0
-150 -157 143 163 0
-150 -158 163 0
-150 -159 136 0
-150 -160 137 0
-150 -161 138 0
-150 -162 139 0
-151 -155 142 163 0
-151 -156 143 163 0
-151 -157 163 0
-151 -158 136 0
-151 -159 137 0
-151 -160 138 0
-151 -161 139 0
-151 -162 140 0
-152 -155 143 163 0
-152 -156 163 0
-152 -157 136 0
-152 -158 137 0
-152 -159 138 0
-152 -160 139 0
-152 -161 140 0
-152 -162 141 0
-153 -155 163 0
-153 -156 136 0
-153 -157 137 0
-153 -158 138 0
-153 -159 139 0
-153 -160 140 0
-153 -161 141 0
-153 -162 142 0
-163 134 0
-154 134 0
-163 -154 135 0
-145 134 0
-163 -145 135 0
-145 -154 135 0
-163 -145 -154 0
-172 164 0
-173 165 0
-169 164 0
-170 165 0
-171 166 0
-169 -172 165 0
-169 -173 166 0
-170 -172 166 0
-170 -173 167 0
-171 -172 167 0
-171 -173 168 0
-78 172 0
-79 172 0
-79 -78 173 0
-80 169 0
-174 169 0
-175 170 0
-174 -80 170 0
-175 -80 171 0
-81 174 0
-72 174 0
-72 -81 175 0
-184 176 0
-185 177 0
-181 176 0
-182 177 0
-183 178 0
-181 -184 177 0
-181 -185 178 0
-182 -184 178 0
-182 -185 179 0
-183 -184 179 0
-183 -185 180 0
-73 184 0
-74 184 0
-74 -73 185 0
-75 181 0
-186 181 0
-187 182 0
-186 -75 182 0
-187 -75 183 0
-76 186 0
-77 186 0
-77 -76 187 0
-176 155 188 0
-177 156 188 0
-178 157 188 0
-179 158 188 0
-180 159 188 0
-164 155 188 0
-165 156 188 0
-166 157 188 0
-167 158 188 0
-168 159 188 0
-164 -176 156 188 0
-164 -177 157 188 0
-164 -178 158 188 0
-164 -179 159 188 0
-164 -180 160 188 0
-165 -176 157 188 0
-165 -177 158 188 0
-165 -178 159 188 0
-165 -179 160 188 0
-165 -180 161 188 0
-166 -176 158 188 0
-166 -177 159 188 0
-166 -178 160 188 0
-166 -179 161 188 0
-166 -180 162 188 0
-167 -176 159 188 0
-167 -177 160 188 0
-167 -178 161 188 0
-167 -179 162 188 0
-167 -180 188 0
-168 -176 160 188 0
-168 -177 161 188 0
-168 -178 162 188 0
-168 -179 188 0
-168 -180 155 0
-188 154 0
-197 189 0
-198 190 0
-194 189 0
-195 190 0
-196 191 0
-194 -197 190 0
-194 -198 191 0
-195 -197 191 0
-195 -198 192 0
-196 -197 192 0
-196 -198 193 0
-18 197 0
-9 197 0
-9 -18 198 0
-8 194 0
-199 194 0
-200 195 0
-199 -8 195 0
-200 -8 196 0
-17 199 0
-16 199 0
-16 -17 200 0
-209 201 0
-210 202 0
-206 201 0
-207 202 0
-208 203 0
-206 -209 202 0
-206 -210 203 0
-207 -209 203 0
-207 -210 204 0
-208 -209 204 0
-208 -210 205 0
-63 209 0
-54 209 0
-54 -63 210 0
-45 206 0
-211 206 0
-212 207 0
-211 -45 207 0
-212 -45 208 0
-36 211 0
-27 211 0
-27 -36 212 0
-201 146 213 0
-202 147 213 0
-203 148 213 0
-204 149 213 0
-205 150 213 0
-189 146 213 0
-190 147 213 0
-191 148 213 0
-192 149 213 0
-193 150 213 0
-189 -201 147 213 0
-189 -202 148 213 0
-189 -203 149 213 0
-189 -204 150 213 0
-189 -205 151 213 0
-190 -201 148 213 0
-190 -202 149 213 0
-190 -203 150 213 0
-190 -204 151 213 0
-190 -205 152 213 0
-191 -201 149 213 0
-191 -202 150 213 0
-191 -203 151 213 0
-191 -204 152 213 0
-191 -205 153 213 0
-192 -201 150 213 0
-192 -202 151 213 0
-192 -203 152 213 0
-192 -204 153 213 0
-192 -205 213 0
-193 -201 151 213 0
-193 -202 152 213 0
-193 -203 153 213 0
-193 -204 213 0
-193 -205 146 0
-213 145 0
-224 126 232 0
-225 127 232 0
-226 128 232 0
-227 129 232 0
-228 130 232 0
-229 131 232 0
-230 132 232 0
-231 133 232 0
-215 126 232 0
-216 127 232 0
-217 128 232 0
-218 129 232 0
-219 130 232 0
-220 131 232 0
-221 132 232 0
-222 133 232 0
-215 -224 127 232 0
-215 -225 128 232 0
-215 -226 129 232 0
-215 -227 130 232 0
-215 -228 131 232 0
-215 -229 132 232 0
-215 -230 133 232 0
-215 -231 232 0
-216 -224 128 232 0
-216 -225 129 232 0
-216 -226 130 232 0
-216 -227 131 232 0
-216 -228 132 232 0
-216 -229 133 232 0
-216 -230 232 0
-216 -231 126 0
-217 -224 129 232 0
-217 -225 130 232 0
-217 -226 131 232 0
-217 -227 132 232 0
-217 -228 133 232 0
-217 -229 232 0
-217 -230 126 0
-217 -231 127 0
-218 -224 130 232 0
-218 -225 131 232 0
-218 -226 132 232 0
-218 -227 133 232 0
-218 -228 232 0
-218 -229 126 0
-218 -230 127 0
-218 -231 128 0
-219 -224 131 232 0
-219 -225 132 232 0
-219 -226 133 232 0
-219 -227 232 0
-219 -228 126 0
-219 -229 127 0
-219 -230 128 0
-219 -231 129 0
-220 -224 132 232 0
-220 -225 133 232 0
-220 -226 232 0
-220 -227 126 0
-220 -228 127 0
-220 -229 128 0
-220 -230 129 0
-220 -231 130 0
-221 -224 133 232 0
-221 -225 232 0
-221 -226 126 0
-221 -227 127 0
-221 -228 128 0
-221 -229 129 0
-221 -230 130 0
-221 -231 131 0
-222 -224 232 0
-222 -225 126 0
-222 -226 127 0
-222 -227 128 0
-222 -228 129 0
-222 -229 130 0
-222 -230 131 0
-222 -231 132 0
-232 124 0
-223 124 0
-232 -223 125 0
-214 124 0
-232 -214 125 0
-214 -223 125 0
-232 -214 -223 0
-241 233 0
-242 234 0
-238 233 0
-239 234 0
-240 235 0
-238 -241 234 0
-238 -242 235 0
-239 -241 235 0
-239 -242 236 0
-240 -241 236 0
-240 -242 237 0
-24 241 0
-23 241 0
-23 -24 242 0
-32 238 0
-243 238 0
-244 239 0
-243 -32 239 0
-244 -32 240 0
-33 243 0
-34 243 0
-34 -33 244 0
-253 245 0
-254 246 0
-250 245 0
-251 246 0
-252 247 0
-250 -253 246 0
-250 -254 247 0
-251 -253 247 0
-251 -254 248 0
-252 -253 248 0
-252 -254 249 0
-7 253 0
-6 253 0
-6 -7 254 0
-5 250 0
-255 250 0
-256 251 0
-255 -5 251 0
-256 -5 252 0
-14 255 0
-15 255 0
-15 -14 256 0
-245 224 257 0
-246 225 257 0
-247 226 257 0
-248 227 257 0
-249 228 257 0
-233 224 257 0
-234 225 257 0
-235 226 257 0
-236 227 257 0
-237 228 257 0
-233 -245 225 257 0
-233 -246 226 257 0
-233 -247 227 257 0
-233 -248 228 257 0
-233 -249 229 257 0
-234 -245 226 257 0
-234 -246 227 257 0
-234 -247 228 257 0
-234 -248 229 257 0
-234 -249 230 257 0
-235 -245 227 257 0
-235 -246 228 257 0
-235 -247 229 257 0
-235 -248 230 257 0
-235 -249 231 257 0
-236 -245 228 257 0
-236 -246 229 257 0
-236 -247 230 257 0
-236 -248 231 257 0
-236 -249 257 0
-237 -245 229 257 0
-237 -246 230 257 0
-237 -247 231 257 0
-237 -248 257 0
-237 -249 224 0
-257 223 0
-266 258 0
-267 259 0
-263 258 0
-264 259 0
-265 260 0
-263 -266 259 0
-263 -267 260 0
-264 -266 260 0
-264 -267 261 0
-265 -266 261 0
-265 -267 262 0
-52 266 0
-53 266 0
-53 -52 267 0
-62 263 0
-268 263 0
-269 264 0
-268 -62 264 0
-269 -62 265 0
-71 268 0
-70 268 0
-70 -71 269 0
-278 270 0
-279 271 0
-275 270 0
-276 271 0
-277 272 0
-275 -278 271 0
-275 -279 272 0
-276 -278 272 0
-276 -279 273 0
-277 -278 273 0
-277 -279 274 0
-25 278 0
-26 278 0
-26 -25 279 0
-35 275 0
-280 275 0
-281 276 0
-280 -35 276 0
-281 -35 277 0
-44 280 0
-43 280 0
-43 -44 281 0
-270 215 282 0
-271 216 282 0
-272 217 282 0
-273 218 282 0
-274 219 282 0
-258 215 282 0
-259 216 282 0
-260 217 282 0
-261 218 282 0
-262 219 282 0
-258 -270 216 282 0
-258 -271 217 282 0
-258 -272 218 282 0
-258 -273 219 282 0
-258 -274 220 282 0
-259 -270 217 282 0
-259 -271 218 282 0
-259 -272 219 282 0
-259 -273 220 282 0
-259 -274 221 282 0
-260 -270 218 282 0
-260 -271 219 282 0
-260 -272 220 282 0
-260 -273 221 282 0
-260 -274 222 282 0
-261 -270 219 282 0
-261 -271 220 282 0
-261 -272 221 282 0
-261 -273 222 282 0
-261 -274 282 0
-262 -270 220 282 0
-262 -271 221 282 0
-262 -272 222 282 0
-262 -273 282 0
-262 -274 215 0
-282 214 0
-295 103 303 0
-296 104 303 0
-297 105 303 0
-298 106 303 0
-299 107 303 0
-300 108 303 0
-301 109 303 0
-302 110 303 0
-285 103 303 0
-286 104 303 0
-287 105 303 0
-288 106 303 0
-289 107 303 0
-290 108 303 0
-291 109 303 0
-292 110 303 0
-285 -295 104 303 0
-285 -296 105 303 0
-285 -297 106 303 0
-285 -298 107 303 0
-285 -299 108 303 0
-285 -300 109 303 0
-285 -301 110 303 0
-285 -302 303 0
-286 -295 105 303 0
-286 -296 106 303 0
-286 -297 107 303 0
-286 -298 108 303 0
-286 -299 109 303 0
-286 -300 110 303 0
-286 -301 303 0
-286 -302 103 0
-287 -295 106 303 0
-287 -296 107 303 0
-287 -297 108 303 0
-287 -298 109 303 0
-287 -299 110 303 0
-287 -300 303 0
-287 -301 103 0
-287 -302 104 0
-288 -295 107 303 0
-288 -296 108 303 0
-288 -297 109 303 0
-288 -298 110 303 0
-288 -299 303 0
-288 -300 103 0
-288 -301 104 0
-288 -302 105 0
-289 -295 108 303 0
-289 -296 109 303 0
-289 -297 110 303 0
-289 -298 303 0
-289 -299 103 0
-289 -300 104 0
-289 -301 105 0
-289 -302 106 0
-290 -295 109 303 0
-290 -296 110 303 0
-290 -297 303 0
-290 -298 103 0
-290 -299 104 0
-290 -300 105 0
-290 -301 106 0
-290 -302 107 0
-291 -295 110 303 0
-291 -296 303 0
-291 -297 103 0
-291 -298 104 0
-291 -299 105 0
-291 -300 106 0
-291 -301 107 0
-291 -302 108 0
-292 -295 303 0
-292 -296 103 0
-292 -297 104 0
-292 -298 105 0
-292 -299 106 0
-292 -300 107 0
-292 -301 108 0
-292 -302 109 0
-303 99 0
-293 99 0
-303 -293 100 0
-294 100 0
-303 -294 101 0
-283 99 0
-303 -283 100 0
-284 100 0
-303 -284 101 0
-283 -293 100 0
-303 -283 -293 101 0
-283 -294 101 0
-303 -283 -294 102 0
-284 -293 101 0
-303 -284 -293 102 0
-284 -294 102 0
-303 -284 -294 0
-314 295 322 0
-315 296 322 0
-316 297 322 0
-317 298 322 0
-318 299 322 0
-319 300 322 0
-320 301 322 0
-321 302 322 0
-305 295 322 0
-306 296 322 0
-307 297 322 0
-308 298 322 0
-309 299 322 0
-310 300 322 0
-311 301 322 0
-312 302 322 0
-305 -314 296 322 0
-305 -315 297 322 0
-305 -316 298 322 0
-305 -317 299 322 0
-305 -318 300 322 0
-305 -319 301 322 0
-305 -320 302 322 0
-305 -321 322 0
-306 -314 297 322 0
-306 -315 298 322 0
-306 -316 299 322 0
-306 -317 300 322 0
-306 -318 301 322 0
-306 -319 302 322 0
-306 -320 322 0
-306 -321 295 0
-307 -314 298 322 0
-307 -315 299 322 0
-307 -316 300 322 0
-307 -317 301 322 0
-307 -318 302 322 0
-307 -319 322 0
-307 -320 295 0
-307 -321 296 0
-308 -314 299 322 0
-308 -315 300 322 0
-308 -316 301 322 0
-308 -317 302 322 0
-308 -318 322 0
-308 -319 295 0
-308 -320 296 0
-308 -321 297 0
-309 -314 300 322 0
-309 -315 301 322 0
-309 -316 302 322 0
-309 -317 322 0
-309 -318 295 0
-309 -319 296 0
-309 -320 297 0
-309 -321 298 0
-310 -314 301 322 0
-310 -315 302 322 0
-310 -316 322 0
-310 -317 295 0
-310 -318 296 0
-310 -319 297 0
-310 -320 298 0
-310 -321 299 0
-311 -314 302 322 0
-311 -315 322 0
-311 -316 295 0
-311 -317 296 0
-311 -318 297 0
-311 -319 298 0
-311 -320 299 0
-311 -321 300 0
-312 -314 322 0
-312 -315 295 0
-312 -316 296 0
-312 -317 297 0
-312 -318 298 0
-312 -319 299 0
-312 -320 300 0
-312 -321 301 0
-322 293 0
-313 293 0
-322 -313 294 0
-304 293 0
-322 -304 294 0
-304 -313 294 0
-322 -304 -313 0
-331 323 0
-332 324 0
-328 323 0
-329 324 0
-330 325 0
-328 -331 324 0
-328 -332 325 0
-329 -331 325 0
-329 -332 326 0
-330 -331 326 0
-330 -332 327 0
-50 331 0
-51 331 0
-51 -50 332 0
-42 328 0
-333 328 0
-334 329 0
-333 -42 329 0
-334 -42 330 0
-41 333 0
-40 333 0
-40 -41 334 0
-343 335 0
-344 336 0
-340 335 0
-341 336 0
-342 337 0
-340 -343 336 0
-340 -344 337 0
-341 -343 337 0
-341 -344 338 0
-342 -343 338 0
-342 -344 339 0
-61 343 0
-60 343 0
-60 -61 344 0
-69 340 0
-345 340 0
-346 341 0
-345 -69 341 0
-346 -69 342 0
-68 345 0
-59 345 0
-59 -68 346 0
-335 314 347 0
-336 315 347 0
-337 316 347 0
-338 317 347 0
-339 318 347 0
-323 314 347 0
-324 315 347 0
-325 316 347 0
-326 317 347 0
-327 318 347 0
-323 -335 315 347 0
-323 -336 316 347 0
-323 -337 317 347 0
-323 -338 318 347 0
-323 -339 319 347 0
-324 -335 316 347 0
-324 -336 317 347 0
-324 -337 318 347 0
-324 -338 319 347 0
-324 -339 320 347 0
-325 -335 317 347 0
-325 -336 318 347 0
-325 -337 319 347 0
-325 -338 320 347 0
-325 -339 321 347 0
-326 -335 318 347 0
-326 -336 319 347 0
-326 -337 320 347 0
-326 -338 321 347 0
-326 -339 347 0
-327 -335 319 347 0
-327 -336 320 347 0
-327 -337 321 347 0
-327 -338 347 0
-327 -339 314 0
-347 313 0
-356 348 0
-357 349 0
-353 348 0
-354 349 0
-355 350 0
-353 -356 349 0
-353 -357 350 0
-354 -356 350 0
-354 -357 351 0
-355 -356 351 0
-355 -357 352 0
-66 356 0
-57 356 0
-57 -66 357 0
-56 353 0
-358 353 0
-359 354 0
-358 -56 354 0
-359 -56 355 0
-65 358 0
-64 358 0
-64 -65 359 0
-368 360 0
-369 361 0
-365 360 0
-366 361 0
-367 362 0
-365 -368 361 0
-365 -369 362 0
-366 -368 362 0
-366 -369 363 0
-367 -368 363 0
-367 -369 364 0
-39 368 0
-48 368 0
-48 -39 369 0
-49 365 0
-370 365 0
-371 366 0
-370 -49 366 0
-371 -49 367 0
-58 370 0
-67 370 0
-67 -58 371 0
-360 305 372 0
-361 306 372 0
-362 307 372 0
-363 308 372 0
-364 309 372 0
-348 305 372 0
-349 306 372 0
-350 307 372 0
-351 308 372 0
-352 309 372 0
-348 -360 306 372 0
-348 -361 307 372 0
-348 -362 308 372 0
-348 -363 309 372 0
-348 -364 310 372 0
-349 -360 307 372 0
-349 -361 308 372 0
-349 -362 309 372 0
-349 -363 310 372 0
-349 -364 311 372 0
-350 -360 308 372 0
-350 -361 309 372 0
-350 -362 310 372 0
-350 -363 311 372 0
-350 -364 312 372 0
-351 -360 309 372 0
-351 -361 310 372 0
-351 -362 311 372 0
-351 -363 312 372 0
-351 -364 372 0
-352 -360 310 372 0
-352 -361 311 372 0
-352 -362 312 372 0
-352 -363 372 0
-352 -364 305 0
-372 304 0
-383 285 391 0
-384 286 391 0
-385 287 391 0
-386 288 391 0
-387 289 391 0
-388 290 391 0
-389 291 391 0
-390 292 391 0
-374 285 391 0
-375 286 391 0
-376 287 391 0
-377 288 391 0
-378 289 391 0
-379 290 391 0
-380 291 391 0
-381 292 391 0
-374 -383 286 391 0
-374 -384 287 391 0
-374 -385 288 391 0
-374 -386 289 391 0
-374 -387 290 391 0
-374 -388 291 391 0
-374 -389 292 391 0
-374 -390 391 0
-375 -383 287 391 0
-375 -384 288 391 0
-375 -385 289 391 0
-375 -386 290 391 0
-375 -387 291 391 0
-375 -388 292 391 0
-375 -389 391 0
-375 -390 285 0
-376 -383 288 391 0
-376 -384 289 391 0
-376 -385 290 391 0
-376 -386 291 391 0
-376 -387 292 391 0
-376 -388 391 0
-376 -389 285 0
-376 -390 286 0
-377 -383 289 391 0
-377 -384 290 391 0
-377 -385 291 391 0
-377 -386 292 391 0
-377 -387 391 0
-377 -388 285 0
-377 -389 286 0
-377 -390 287 0
-378 -383 290 391 0
-378 -384 291 391 0
-378 -385 292 391 0
-378 -386 391 0
-378 -387 285 0
-378 -388 286 0
-378 -389 287 0
-378 -390 288 0
-379 -383 291 391 0
-379 -384 292 391 0
-379 -385 391 0
-379 -386 285 0
-379 -387 286 0
-379 -388 287 0
-379 -389 288 0
-379 -390 289 0
-380 -383 292 391 0
-380 -384 391 0
-380 -385 285 0
-380 -386 286 0
-380 -387 287 0
-380 -388 288 0
-380 -389 289 0
-380 -390 290 0
-381 -383 391 0
-381 -384 285 0
-381 -385 286 0
-381 -386 287 0
-381 -387 288 0
-381 -388 289 0
-381 -389 290 0
-381 -390 291 0
-391 283 0
-382 283 0
-391 -382 284 0
-373 283 0
-391 -373 284 0
-373 -382 284 0
-391 -373 -382 0
-400 392 0
-401 393 0
-397 392 0
-398 393 0
-399 394 0
-397 -400 393 0
-397 -401 394 0
-398 -400 394 0
-398 -401 395 0
-399 -400 395 0
-399 -401 396 0
-28 400 0
-19 400 0
-19 -28 401 0
-20 397 0
-402 397 0
-403 398 0
-402 -20 398 0
-403 -20 399 0
-29 402 0
-30 402 0
-30 -29 403 0
-412 404 0
-413 405 0
-409 404 0
-410 405 0
-411 406 0
-409 -412 405 0
-409 -413 406 0
-410 -412 406 0
-410 -413 407 0
-411 -412 407 0
-411 -413 408 0
-55 412 0
-46 412 0
-46 -55 413 0
-47 409 0
-414 409 0
-415 410 0
-414 -47 410 0
-415 -47 411 0
-38 414 0
-37 414 0
-37 -38 415 0
-404 383 416 0
-405 384 416 0
-406 385 416 0
-407 386 416 0
-408 387 416 0
-392 383 416 0
-393 384 416 0
-394 385 416 0
-395 386 416 0
-396 387 416 0
-392 -404 384 416 0
-392 -405 385 416 0
-392 -406 386 416 0
-392 -407 387 416 0
-392 -408 388 416 0
-393 -404 385 416 0
-393 -405 386 416 0
-393 -406 387 416 0
-393 -407 388 416 0
-393 -408 389 416 0
-394 -404 386 416 0
-394 -405 387 416 0
-394 -406 388 416 0
-394 -407 389 416 0
-394 -408 390 416 0
-395 -404 387 416 0
-395 -405 388 416 0
-395 -406 389 416 0
-395 -407 390 416 0
-395 -408 416 0
-396 -404 388 416 0
-396 -405 389 416 0
-396 -406 390 416 0
-396 -407 416 0
-396 -408 383 0
-416 382 0
-426 417 0
-427 418 0
-428 419 0
-423 417 0
-424 418 0
-425 419 0
-423 -426 418 0
-423 -427 419 0
-423 -428 420 0
-424 -426 419 0
-424 -427 420 0
-424 -428 421 0
-425 -426 420 0
-425 -427 421 0
-425 -428 422 0
-4 426 0
-429 426 0
-430 427 0
-429 -4 427 0
-430 -4 428 0
-3 429 0
-2 429 0
-2 -3 430 0
-11 423 0
-431 423 0
-432 424 0
-431 -11 424 0
-432 -11 425 0
-10 431 0
-1 431 0
-1 -10 432 0
-441 433 0
-442 434 0
-438 433 0
-439 434 0
-440 435 0
-438 -441 434 0
-438 -442 435 0
-439 -441 435 0
-439 -442 436 0
-440 -441 436 0
-440 -442 437 0
-31 441 0
-22 441 0
-22 -31 442 0
-21 438 0
-443 438 0
-444 439 0
-443 -21 439 0
-444 -21 440 0
-12 443 0
-13 443 0
-13 -12 444 0
-433 374 445 0
-434 375 445 0
-435 376 445 0
-436 377 445 0
-437 378 445 0
-417 374 445 0
-418 375 445 0
-419 376 445 0
-420 377 445 0
-421 378 445 0
-422 379 445 0
-417 -433 375 445 0
-417 -434 376 445 0
-417 -435 377 445 0
-417 -436 378 445 0
-417 -437 379 445 0
-418 -433 376 445 0
-418 -434 377 445 0
-418 -435 378 445 0
-418 -436 379 445 0
-418 -437 380 445 0
-419 -433 377 445 0
-419 -434 378 445 0
-419 -435 379 445 0
-419 -436 380 445 0
-419 -437 381 445 0
-420 -433 378 445 0
-420 -434 379 445 0
-420 -435 380 445 0
-420 -436 381 445 0
-420 -437 445 0
-421 -433 379 445 0
-421 -434 380 445 0
-421 -435 381 445 0
-421 -436 445 0
-421 -437 374 0
-422 -433 380 445 0
-422 -434 381 445 0
-422 -435 445 0
-422 -436 374 0
-422 -437 375 0
-445 373 0
-82 0
-83 0
-84 0
-85 0
-86 0
-87 0
-88 0
-89 0
-90 0
-96 0
-97 0
-98 0
